SYSTEM=C 111 co
ISTART= 0   #begin from scratch.
ICHARG=2    #Take superposition of atomic charge densities
PREC = Normal  #cutoff + wrap around errors.
IBRION= 2  #conj. grad. relaxation.
NSW=1001   #number of ionic steps taken in minimization. Make it odd.
ENCUT=500.000  #cutoff energy
EDIFF=1.0e-03
EDIFFG=-0.01
ISYM= 0   #no symmetry
ISIF=3    #calculate force stress and change position shap volum
ISMEAR= 0  #BZ integration method (for relaxation runs)  normal use
SIGMA= 0.1
LWAVE = .FALSE.
LCHARG = .FALSE.
LBERRY = .FALSE.
NPAR=4
#IALGO= 48
#POTIM= 0.2
ALGO = Normal
#LREAL= .FALSE  #projection done in reciprocal space
LREAL= Auto
NELM= 850
