K-Spacing Value to Generate K-Mesh: 0.040
0
Monkhorst-Pack
   9   9   6
0.0  0.0  0.0
