K-Spacing Value to Generate K-Mesh: 0.040
0
Monkhorst-Pack
   6   9   9
0.0  0.0  0.0
