2hC
1.0
        5.0289001465         0.0000000000         0.0000000000
       -2.5144500732         4.3551552800         0.0000000000
        0.0000000000         0.0000000000         4.1061000824
    C
   16
Direct
     0.166669995         0.333330005         0.500000000
     0.333330005         0.166669995         0.000000000
     0.166669995         0.333330005         0.875000000
     0.333330005         0.166669995         0.375000000
     0.666670024         0.333330005         0.500000000
     0.833329976         0.166669995         0.000000000
     0.666670024         0.333330005         0.875000000
     0.833329976         0.166669995         0.375000000
     0.166669995         0.833329976         0.500000000
     0.333330005         0.666670024         0.000000000
     0.166669995         0.833329976         0.875000000
     0.333330005         0.666670024         0.375000000
     0.666670024         0.833329976         0.500000000
     0.833329976         0.666670024         0.000000000
     0.666670024         0.833329976         0.875000000
     0.833329976         0.666670024         0.375000000
