SYSTEM=C 111 co
ISTART= 0   #begin from scratch.
ICHARG=2    #Take superposition of atomic charge densities
PREC = Normal  #cutoff + wrap around errors.
IBRION= 2  #conj. grad. relaxation.
NSW=1501   #number of ionic steps taken in minimization. Make it odd.
ENCUT=500.000  #cutoff energy
EDIFF=1.0e-04
EDIFFG=-0.03
ISYM= 0   #no symmetry
ISIF=3    #calculate force stress and change position shap volum
ISMEAR= 0  #BZ integration method (for relaxation runs)  normal use
SIGMA= 0.1
LWAVE = .FALSE.
LCHARG = .FALSE.
LBERRY = .FALSE.
NPAR=4
#IALGO= 48
#POTIM= 0.2
ALGO = Normal
#LREAL= .FALSE  #projection done in reciprocal space
LREAL= Auto
NELM= 850
#NBANDS=520  #determines the actual number of bands in the calculation.
#LORBIT = 11  #For LDOS calculation
#ICHARG = 11
#ISPIN= 2
#LDAU= .TRUE.
#LDAUL= -1 2 -1 
#LDAUU= 0 10.4 0 
#LDAUJ= 0 1.0  0 
#LDAUPRINT= 2
#LMAXMIX= 4
#LPARD= .TRUE.
#NBMOD= -3
#EINT= -0.5
