K-Spacing Value to Generate K-Mesh: 0.040
0
Monkhorst-Pack
  1   12   12
0.0  0.0  0.0
