3cC10
1.0
        2.5144999027         0.0000000000         0.0000000000
       -1.2572499514         2.1776207936         0.0000000000
        0.0000000000         0.0000000000        52.5479011536
    C
   40
Direct
     0.000000000         0.000000000         0.114179999
     0.000000000         0.000000000         0.231389999
     0.000000000         0.000000000         0.348600000
     0.000000000         0.000000000         0.465810001
     0.000000000         0.000000000         0.583019972
     0.000000000         0.000000000         0.700230002
     0.000000000         0.000000000         0.817449987
     0.666670024         0.333330005         0.192320004
     0.666670024         0.333330005         0.309529990
     0.666670024         0.333330005         0.426739991
     0.666670024         0.333330005         0.543950021
     0.666670024         0.333330005         0.661159992
     0.666670024         0.333330005         0.778379977
     0.333330005         0.666670024         0.153249994
     0.333330005         0.666670024         0.270460010
     0.333330005         0.666670024         0.387670010
     0.333330005         0.666670024         0.504880011
     0.333330005         0.666670024         0.622089982
     0.333330005         0.666670024         0.739310026
     0.333330005         0.666670024         0.856519997
     0.000000000         0.000000000         0.143480003
     0.000000000         0.000000000         0.260690004
     0.000000000         0.000000000         0.377909988
     0.000000000         0.000000000         0.495119989
     0.000000000         0.000000000         0.612330019
     0.000000000         0.000000000         0.729539990
     0.000000000         0.000000000         0.846750021
     0.666670024         0.333330005         0.221619993
     0.666670024         0.333330005         0.338840008
     0.666670024         0.333330005         0.456050009
     0.666670024         0.333330005         0.573260009
     0.666670024         0.333330005         0.690469980
     0.666670024         0.333330005         0.807680011
     0.333330005         0.666670024         0.182549998
     0.333330005         0.666670024         0.299769998
     0.333330005         0.666670024         0.416979998
     0.333330005         0.666670024         0.534189999
     0.333330005         0.666670024         0.651400030
     0.333330005         0.666670024         0.768610001
     0.333330005         0.666670024         0.885819972
